
List of user-set options:

                                    Name   Value                used
                           compl_inf_tol = 1                     yes
                         constr_viol_tol = 1                     yes
                            dual_inf_tol = 1000                  yes
                           linear_solver = ma97                  yes
                              ma86_small = 1e-30                  no
                                  ma86_u = 0.0001                 no
                              ma97_order = best                  yes
                              ma97_small = 1e-30                 yes
                            ma97_switch1 = at_start              yes
                            ma97_switch2 = od_hd_reuse           yes
                                  ma97_u = 1e-06                 yes
                               ma97_umax = 0.5                   yes
                                max_iter = 2000                  yes
                    max_refinement_steps = 20                    yes
                    min_refinement_steps = 5                     yes
                                 mu_init = 1e-06                 yes
           mu_superlinear_decrease_power = 1.25                  yes
                   nlp_scaling_min_value = 1e-08                 yes
                        option_file_name = Preset_Case:_23_NCP.opt  yes
                             output_file = ./tmp/Preset_Case:_23_NCP.output  yes
                      print_user_options = yes                   yes
        required_infeasibility_reduction = 1                      no
                                     tol = 1e-08                 yes
                   warm_start_bound_frac = 1e-20                 yes
                   warm_start_bound_push = 1e-20                 yes
                   warm_start_init_point = yes                   yes
              warm_start_mult_bound_push = 1e-20                 yes
                warm_start_mult_init_max = 1e+40                 yes
             warm_start_slack_bound_frac = 1e-20                 yes
             warm_start_slack_bound_push = 1e-20                 yes

******************************************************************************
This program contains Ipopt, a library for large-scale nonlinear optimization.
 Ipopt is released as open source code under the Eclipse Public License (EPL).
         For more information visit http://projects.coin-or.org/Ipopt
******************************************************************************

This is Ipopt version 3.12.10, running with linear solver ma97.

Number of nonzeros in equality constraint Jacobian...:   117140
Number of nonzeros in inequality constraint Jacobian.:      213
Number of nonzeros in Lagrangian Hessian.............:    47462

Total number of variables............................:    29971
                     variables with only lower bounds:    11312
                variables with lower and upper bounds:    15132
                     variables with only upper bounds:        0
Total number of equality constraints.................:    29864
Total number of inequality constraints...............:       25
        inequality constraints with only lower bounds:        4
   inequality constraints with lower and upper bounds:        0
        inequality constraints with only upper bounds:       21

iter    objective    inf_pr   inf_du lg(mu)  ||d||  lg(rg) alpha_du alpha_pr  ls
   0 -5.2293971e-02 7.00e-02 1.38e+02  -6.0 0.00e+00    -  0.00e+00 0.00e+00   0
In iteration 0, 2 Slacks too small, adjusting variable bounds
   1 -5.2293971e-02 7.00e-02 8.69e+03  -6.0 8.17e+05  -2.0 2.16e-08 4.16e-16f  1
   2 -5.2293971e-02 7.00e-02 8.69e+03  -6.0 6.99e+02  -1.6 3.04e-05 1.13e-09f  1
   3 -5.2294672e-02 7.00e-02 8.69e+03  -6.0 1.37e+03  -2.1 5.97e-05 4.15e-05f  1
   4 -5.2294902e-02 7.00e-02 8.69e+03  -6.0 1.37e+03  -1.6 1.14e-05 1.17e-05f  1
   5 -5.2298256e-02 7.00e-02 8.69e+03  -6.0 1.37e+03  -2.1 8.82e-06 1.53e-04f  1
   6 -5.2298846e-02 7.00e-02 8.69e+03  -6.0 1.37e+03  -1.7 7.90e-05 2.65e-05f  1
   7 -5.2374463e-02 6.98e-02 7.17e+04  -6.0 1.37e+03  -2.2 2.55e-05 3.52e-03f  1
   8 -5.2374864e-02 6.98e-02 7.48e+04  -6.0 1.30e+03  -1.7 2.95e-05 9.19e-05h  1
   9 -5.2372464e-02 6.96e-02 7.52e+04  -6.0 1.17e+03  -2.2 3.16e-07 2.92e-05f  1
iter    objective    inf_pr   inf_du lg(mu)  ||d||  lg(rg) alpha_du alpha_pr  ls
  10 -5.2371223e-02 6.96e-02 7.65e+04  -6.0 1.22e+03  -1.8 3.99e-06 3.50e-05h  1
  11 -5.2371183e-02 6.96e-02 7.59e+04  -6.0 1.14e+03  -2.3 5.47e-05 2.78e-07f  2
  12 -5.2369811e-02 6.95e-02 7.66e+04  -6.0 1.21e+03  -1.8 1.74e-05 3.55e-05h  1
  13 -5.2368413e-02 6.93e-02 5.77e+04  -6.0 1.23e+03  -1.4 2.43e-04 5.57e-05h  1
  14 -5.2322523e-02 6.63e-02 8.27e+04  -6.0 1.20e+03  -1.9 2.42e-04 1.05e-03h  1
  15 -5.2309908e-02 6.54e-02 7.67e+04  -6.0 1.16e+03  -1.5 2.31e-03 3.49e-04h  1
  16 -5.2287850e-02 6.42e-02 8.08e+04  -6.0 1.10e+03  -1.9 5.23e-04 3.36e-04h  1
  17 -5.2239398e-02 6.10e-02 5.94e+04  -6.0 1.12e+03  -1.5 2.27e-04 1.21e-03h  1
  18 -5.2220361e-02 6.00e-02 5.94e+04  -6.0 1.03e+03  -2.0 4.75e-04 2.53e-04h  1
  19 -5.2194513e-02 5.85e-02 6.05e+04  -6.0 1.06e+03  -1.6 2.78e-04 5.54e-04h  1
iter    objective    inf_pr   inf_du lg(mu)  ||d||  lg(rg) alpha_du alpha_pr  ls
  20 -5.2157462e-02 5.68e-02 6.06e+04  -6.0 1.00e+03  -2.0 2.67e-03 5.05e-04h  1
  21 -5.2124116e-02 5.50e-02 6.18e+04  -6.0 1.02e+03  -1.6 6.09e-04 6.84e-04h  3
  22 -5.2095705e-02 5.39e-02 1.64e+05  -6.0 9.74e+02  -2.1 1.89e-02 3.63e-04h  4
  23 -5.2055476e-02 5.20e-02 2.24e+05  -6.0 9.99e+02  -1.7 2.56e-03 7.98e-04h  3
  24 -5.2039610e-02 5.15e-02 3.33e+05  -6.0 9.44e+02  -2.1 2.32e-02 1.85e-04h  4
  25 -5.2019889e-02 5.07e-02 4.67e+05  -6.0 9.77e+02  -1.7 5.20e-03 3.79e-04h  4
  26 -5.2013670e-02 5.06e-02 5.05e+05  -6.0 9.21e+02  -2.2 1.56e-02 6.41e-05h  5
  27 -5.1993782e-02 4.98e-02 7.71e+05  -6.0 9.67e+02  -1.8 1.19e-02 3.69e-04h  4
  28 -5.1991182e-02 4.97e-02 7.72e+05  -6.0 8.95e+02  -2.2 5.01e-03 2.27e-05h  6
  29 -5.1971816e-02 4.91e-02 1.25e+06  -6.0 9.59e+02  -1.8 2.55e-02 3.49e-04h  4
iter    objective    inf_pr   inf_du lg(mu)  ||d||  lg(rg) alpha_du alpha_pr  ls
  30 -5.1867855e-02 4.78e-02 1.25e+06  -6.0 9.37e+02  -2.3 1.93e-04 6.96e-04h  2
  31 -5.1548949e-02 4.33e-02 1.21e+06  -6.0 9.51e+02  -1.9 7.17e-04 2.83e-03w  1
  32 -4.9442545e-02 4.32e-02 1.21e+06  -6.0 9.05e+02  -2.3 6.21e-06 5.87e-05w  1
  33 -1.5905047e-02 4.32e-02 1.21e+06  -6.0 8.57e+02  -1.9 5.04e-06 6.80e-05w  1
  34 -5.1788129e-02 4.66e-02 1.25e+06  -6.0 8.75e+02  -2.4 7.17e-04 7.07e-04h  2
  35 -1.8184132e-02 4.56e-02 1.24e+06  -6.0 9.27e+02  -2.0 2.07e-06 7.21e-04h  2
  36  7.1802654e-03 4.53e-02 1.24e+06  -6.0 8.52e+02  -2.4 3.09e-04 1.68e-04h  1
  37  2.2907977e-01 4.46e-02 1.24e+06  -6.0 8.31e+02  -2.0 2.05e-04 5.58e-04h  3
  38  2.4800197e-01 4.45e-02 1.20e+06  -6.0 8.57e+02  -2.5 1.00e-02 1.11e-04h  1
  39  4.8449796e-01 4.39e-02 1.20e+06  -6.0 8.39e+02  -2.1 8.11e-04 5.93e-04h  3
iter    objective    inf_pr   inf_du lg(mu)  ||d||  lg(rg) alpha_du alpha_pr  ls
  40  7.2885028e-01 4.29e-02 5.69e+06  -6.0 8.67e+02  -2.5 2.68e-01 1.22e-03h  2
  41  1.2365514e+00 4.27e-02 5.72e+06  -6.0 8.53e+02  -2.1 1.82e-03 1.18e-03h  3
  42  1.3401297e+00 4.26e-02 6.35e+06  -6.0 8.55e+02  -2.6 1.79e-02 4.68e-04h  3
  43  1.6109799e+00 4.25e-02 6.54e+06  -6.0 8.37e+02  -2.2 4.26e-03 6.84e-04h  5
  44  1.6774614e+00 4.24e-02 1.30e+07  -6.0 8.40e+02  -2.6 2.00e-01 3.54e-04h  5
  45  1.9941018e+00 4.23e-02 1.31e+07  -6.0 8.29e+02  -2.2 4.75e-03 8.59e-04h  5
  46  2.0386031e+00 4.23e-02 1.33e+07  -6.0 8.20e+02  -2.7 5.33e-03 2.77e-04h  5
  47r 2.0386031e+00 4.23e-02 1.00e+03  -1.2 0.00e+00  -2.3 0.00e+00 2.65e-07R  3
  48r 2.0385825e+00 4.27e-02 1.00e+03  -1.2 6.84e+03    -  1.13e-05 1.56e-05f  1
  49  2.0385803e+00 4.27e-02 9.70e+06  -6.0 2.45e+02    -  9.80e-02 1.14e-06h  2
iter    objective    inf_pr   inf_du lg(mu)  ||d||  lg(rg) alpha_du alpha_pr  ls
  50  2.0385456e+00 4.27e-02 5.15e+07  -6.0 6.01e+03    -  3.87e-06 2.05e-05h  1
  51  2.0191478e+00 4.21e-02 4.21e+08  -6.0 4.36e+02    -  2.29e-05 1.04e-02f  1
  52  1.9995656e+00 4.23e-02 4.17e+08  -6.0 4.43e+02    -  2.27e-03 1.06e-02f  3
  53  1.9960979e+00 4.22e-02 4.16e+08  -6.0 4.45e+02    -  2.18e-02 1.91e-03h  1
  54  1.9667120e+00 4.23e-02 4.09e+08  -6.0 4.63e+02    -  2.95e-02 1.57e-02h  2
  55  1.9358057e+00 4.23e-02 4.03e+08  -6.0 4.68e+02    -  4.00e-02 1.63e-02H  1
  56  1.9358031e+00 4.23e-02 4.03e+08  -6.0 8.30e+02    -  1.53e-02 6.89e-07h  2
  57  1.9319277e+00 4.25e-02 4.02e+08  -6.0 8.86e+02    -  1.56e-02 1.61e-03h  6
  58  1.9258082e+00 4.27e-02 4.01e+08  -6.0 8.96e+02    -  1.28e-02 2.65e-03h  2
  59  1.9209812e+00 4.28e-02 4.00e+08  -6.0 9.14e+02    -  4.74e-02 2.86e-03h  1
iter    objective    inf_pr   inf_du lg(mu)  ||d||  lg(rg) alpha_du alpha_pr  ls
  60  1.9138927e+00 4.27e-02 3.99e+08  -6.0 9.44e+02    -  4.63e-02 3.16e-03h  6
  61  1.9098746e+00 4.26e-02 3.98e+08  -6.0 9.87e+02    -  5.51e-02 2.06e-03h  7
  62  1.9047845e+00 4.25e-02 3.97e+08  -6.0 1.03e+03    -  7.66e-03 2.62e-03h  7
  63  1.8996744e+00 4.24e-02 3.96e+08  -6.0 1.02e+03    -  6.73e-02 2.64e-03h  7
  64  1.8942418e+00 4.24e-02 3.94e+08  -6.0 1.04e+03    -  1.34e-02 2.82e-03h  7
  65  1.5404336e+00 1.07e+00 3.22e+08  -6.0 1.03e+03    -  8.31e-02 1.84e-01f  1
  66  1.5404048e+00 1.07e+00 3.22e+08  -6.0 1.30e+02    -  3.93e-02 1.80e-05h  1
  67  1.1163931e+00 7.80e-01 2.35e+08  -6.0 1.46e+02    -  3.53e-01 2.69e-01h  1
  68  7.2878015e-01 5.31e-01 1.57e+08  -6.0 2.00e+02    -  2.69e-01 3.35e-01h  1
  69 -2.8341214e-02 1.71e-01 2.79e+06  -6.0 1.22e+02    -  5.20e-01 9.82e-01h  1
iter    objective    inf_pr   inf_du lg(mu)  ||d||  lg(rg) alpha_du alpha_pr  ls
  70 -4.3431323e-02 5.08e-02 3.53e+05  -6.0 7.85e+00    -  5.26e-01 9.94e-01h  1
  71 -4.3431891e-02 5.08e-02 4.51e+05  -6.0 4.73e+00    -  2.12e-01 1.51e-03h  1
  72 -4.3618622e-02 4.55e-02 7.27e+05  -6.0 4.79e+00    -  6.43e-01 1.24e-01h  1
  73 -4.6520415e-02 1.80e-01 9.98e+05  -6.0 2.80e+01    -  1.55e-01 7.28e-01f  1
  74r-4.6520415e-02 1.80e-01 1.00e+03  -1.3 0.00e+00    -  0.00e+00 2.88e-07R  3
  75r-4.6498556e-02 1.74e-01 1.00e+03  -1.3 3.23e+03    -  8.38e-05 3.71e-05f  1
  76 -4.6499341e-02 1.20e-01 1.05e+02  -6.0 9.67e-01    -  1.31e-01 3.06e-01h  1
  77 -4.6500668e-02 1.02e-01 3.80e+02  -6.0 6.45e-01    -  7.15e-01 1.52e-01h  1
  78 -4.6556513e-02 1.19e-03 9.19e+01  -6.0 5.11e-01    -  6.94e-01 1.00e+00h  1
  79 -4.6712096e-02 2.37e-04 5.01e+01  -6.0 4.57e-01    -  6.26e-01 1.00e+00h  1
iter    objective    inf_pr   inf_du lg(mu)  ||d||  lg(rg) alpha_du alpha_pr  ls
  80 -4.7144705e-02 2.06e-03 7.42e+00  -6.0 1.78e+00    -  8.95e-01 1.00e+00h  1
  81 -5.1405471e-02 2.70e-01 1.63e+01  -6.0 2.08e+01    -  1.04e-01 1.00e+00h  1
  82 -5.3780216e-02 2.21e-01 1.09e+01  -6.0 2.83e+01    -  3.19e-01 4.49e-01h  1
  83 -6.0706397e-02 6.36e-01 2.29e+01  -6.0 5.07e+01    -  3.69e-01 8.25e-01f  1
  84 -6.2195024e-02 5.57e-01 5.97e+01  -6.0 4.35e+01    -  2.41e-01 1.81e-01h  1
  85 -6.2964476e-02 5.19e-01 7.00e+01  -6.0 3.06e+01    -  5.96e-02 8.17e-02h  1
  86 -6.4870680e-02 5.41e-01 3.80e+01  -6.0 4.33e+01    -  3.62e-01 1.94e-01h  1
  87 -7.5813022e-02 3.18e+00 6.04e+01  -6.0 6.36e+01    -  2.34e-01 7.81e-01h  1
  88 -8.3168497e-02 1.42e+00 4.20e+01  -6.0 1.16e+02    -  5.44e-01 4.92e-01h  1
  89 -8.7808640e-02 1.30e+00 3.81e+01  -6.0 1.55e+02    -  2.27e-01 3.55e-01h  1
iter    objective    inf_pr   inf_du lg(mu)  ||d||  lg(rg) alpha_du alpha_pr  ls
  90 -9.0521679e-02 3.05e+00 2.87e+01  -6.0 1.75e+02    -  2.55e-01 2.15e-01h  1
  91 -9.5979185e-02 8.76e+00 1.77e+02  -6.0 2.40e+02    -  5.20e-01 3.67e-01h  1
  92 -1.0056270e-01 9.16e+00 2.16e+02  -6.0 4.90e+02    -  3.19e-01 2.68e-01h  1
  93 -1.0251526e-01 8.29e+00 6.95e+02  -6.0 4.57e+02    -  4.62e-01 1.23e-01h  1
  94 -1.0252275e-01 8.20e+00 2.58e+03  -6.0 2.39e+00  -2.8 5.74e-03 1.09e-02h  1
  95 -1.0252083e-01 8.06e+00 2.53e+03  -6.0 2.12e+00  -3.2 9.30e-03 1.79e-02h  1
  96 -1.0250841e-01 7.52e+00 2.36e+03  -6.0 1.76e+00  -3.7 8.61e-02 6.69e-02h  1
  97 -1.0250280e-01 7.24e+00 2.27e+03  -6.0 1.58e+00  -4.2 1.34e-01 3.62e-02h  1
  98 -1.0238806e-01 4.35e+00 1.37e+03  -6.0 3.70e+00  -4.7 2.63e-01 4.00e-01h  1
  99 -1.0247788e-01 1.58e+00 4.90e+02  -6.0 4.07e+00  -5.1 2.17e-01 6.38e-01h  1
iter    objective    inf_pr   inf_du lg(mu)  ||d||  lg(rg) alpha_du alpha_pr  ls
 100 -1.0257709e-01 1.45e+00 4.71e+02  -6.0 8.10e+00  -5.6 5.57e-01 8.09e-02h  1
 101 -1.0303825e-01 1.23e+00 3.83e+02  -6.0 2.36e+01  -6.1 8.66e-02 1.53e-01h  1
 102 -1.0306912e-01 1.23e+00 6.92e+02  -6.0 1.25e+02  -6.6 2.87e-02 4.90e-03h  1
 103 -1.0485461e-01 2.11e+00 2.99e+03  -6.0 5.30e+01  -7.0 7.38e-01 4.98e-01h  1
 104 -1.0548597e-01 1.99e+00 8.53e+03  -6.0 1.74e+02  -7.5 2.25e-01 9.48e-02h  1
 105 -1.0747650e-01 1.87e+00 9.93e+03  -6.0 9.83e+02  -8.0 1.20e-01 8.88e-02h  1
 106 -1.0837486e-01 1.86e+00 1.06e+04  -6.0 9.58e+03  -8.5 1.59e-02 5.21e-03h  1
 107 -1.1061054e-01 1.72e+00 3.41e+04  -6.0 7.97e+02  -8.1 2.82e-01 1.00e-01h  1
 108 -1.1160794e-01 1.70e+00 3.29e+04  -6.0 4.12e+03  -8.5 9.95e-02 1.03e-02h  1
 109 -1.1234827e-01 1.66e+00 9.69e+04  -6.0 9.39e+02  -8.1 1.29e-02 2.58e-02h  1
iter    objective    inf_pr   inf_du lg(mu)  ||d||  lg(rg) alpha_du alpha_pr  ls
 110 -1.1310461e-01 1.63e+00 8.99e+04  -6.0 7.96e+02  -8.6 2.12e-01 7.57e-02h  1
 111 -1.1310851e-01 1.60e+00 8.80e+04  -6.0 2.82e+00  -2.7 8.07e-04 2.25e-02h  1
 112 -1.1310734e-01 1.59e+00 8.75e+04  -6.0 2.77e+00  -2.3 3.80e-03 6.30e-03h  1
 113 -1.1310160e-01 1.57e+00 8.68e+04  -6.0 2.05e+01  -2.8 1.11e-03 7.73e-03h  1
 114 -1.1309572e-01 1.55e+00 8.58e+04  -6.0 4.91e+00  -2.4 1.24e-02 1.21e-02h  1
 115 -1.1309350e-01 1.54e+00 8.48e+04  -6.0 2.09e+00  -1.9 1.64e-02 1.15e-02h  1
 116 -1.1306726e-01 1.53e+00 8.47e+04  -6.0 2.26e+02  -2.4 2.39e-04 1.13e-03h  1
 117 -1.1305463e-01 1.49e+00 8.20e+04  -6.0 2.29e+00  -2.0 3.31e-02 3.16e-02h  1
 118 -1.1305168e-01 1.45e+00 7.99e+04  -6.0 1.59e+00  -1.6 1.17e-01 2.34e-02h  1
 119 -1.1303063e-01 1.36e+00 7.51e+04  -6.0 2.16e+00  -2.0 1.30e-01 6.01e-02h  1
iter    objective    inf_pr   inf_du lg(mu)  ||d||  lg(rg) alpha_du alpha_pr  ls
 120 -1.1290550e-01 1.27e+00 6.98e+04  -6.0 1.49e+01  -2.5 2.29e-02 7.01e-02h  1
 121 -1.1281337e-01 1.15e+00 6.35e+04  -6.0 1.03e+01  -3.0 2.64e-01 9.05e-02h  1
 122 -1.1286573e-01 5.29e-01 2.91e+04  -6.0 1.77e+00  -3.5 1.37e-03 5.42e-01h  1
 123 -1.1267035e-01 3.53e-01 1.95e+04  -6.0 2.13e+00  -3.0 1.14e-01 3.29e-01h  1
 124 -1.1273024e-01 9.82e-02 4.41e+03  -6.0 2.58e+00  -3.5 3.77e-01 7.75e-01f  1
 125 -1.1272326e-01 3.19e-04 3.97e+00  -6.0 2.51e-01  -4.0 9.52e-01 1.00e+00h  1
 126 -1.1279441e-01 8.06e-04 4.36e+00  -6.0 5.77e-01  -4.5 4.36e-01 7.43e-01h  1
 127 -1.1289108e-01 9.94e-04 2.15e+00  -6.0 1.96e+00  -4.9 8.14e-01 3.89e-01f  1
 128 -1.1318581e-01 5.56e-03 3.84e+00  -6.0 6.11e+00  -5.4 1.00e+00 5.31e-01f  1
 129 -1.1332966e-01 1.06e-02 4.17e+00  -6.0 4.16e+00  -5.9 1.00e+00 4.77e-01f  1
iter    objective    inf_pr   inf_du lg(mu)  ||d||  lg(rg) alpha_du alpha_pr  ls
 130 -1.1361899e-01 3.46e-02 2.49e+00  -6.0 1.01e+01  -6.4 1.00e+00 7.65e-01f  1
 131 -1.1422567e-01 3.46e-02 1.01e+01  -6.0 2.84e+01  -6.9 1.00e+00 1.00e+00f  1
 132 -1.1515388e-01 6.31e-02 9.40e+00  -6.0 6.27e+01  -7.3 9.70e-01 1.00e+00h  1
 133 -1.1666769e-01 3.57e-01 1.90e+01  -6.0 1.53e+02  -7.8 1.00e+00 9.09e-01h  1
 134 -1.1819161e-01 8.49e-01 2.11e+01  -6.0 3.32e+02  -8.3 8.31e-01 5.95e-01h  1
 135 -1.1867202e-01 7.95e-01 3.66e+01  -6.0 8.44e+02  -8.8 3.75e-01 1.17e-01h  1
 136 -1.1865448e-01 5.59e-01 3.57e+03  -6.0 7.28e+01  -7.4 5.40e-03 3.03e-01h  1
 137 -1.1894572e-01 3.70e-01 2.04e+03  -6.0 1.17e+02  -7.9 1.30e-01 4.11e-01h  1
 138 -1.1947288e-01 4.81e-01 1.36e+03  -6.0 2.86e+02  -8.4 5.80e-01 3.40e-01h  1
 139 -1.1949024e-01 4.68e-01 1.33e+03  -6.0 5.42e+02  -8.0 5.28e-02 2.65e-02h  1
iter    objective    inf_pr   inf_du lg(mu)  ||d||  lg(rg) alpha_du alpha_pr  ls
 140 -1.2039764e-01 9.32e-01 6.52e+02  -6.0 3.12e+02  -8.4 1.00e+00 5.68e-01h  1
 141 -1.2230817e-01 1.69e+00 1.30e+03  -6.0 4.72e+02  -8.9 1.17e-01 8.20e-01h  1
 142 -1.2361246e-01 1.56e+01 1.07e+03  -6.0 4.83e+03  -9.4 1.40e-01 1.75e-01h  1
 143 -1.2427557e-01 1.19e+01 7.90e+02  -6.0 5.56e+02  -9.0 8.51e-01 2.65e-01h  1
 144 -1.2595741e-01 1.28e+01 6.14e+02  -6.0 2.44e+03  -9.4 2.79e-01 2.23e-01h  1
 145 -1.2668138e-01 9.34e+00 4.41e+02  -6.0 6.84e+02  -9.0 1.00e+00 2.82e-01h  1
 146 -1.2750415e-01 1.72e+00 7.44e+01  -6.0 3.14e+02  -8.6 6.10e-01 8.32e-01h  1
 147 -1.2767520e-01 1.47e+00 6.34e+01  -6.0 7.04e+02  -8.2 1.40e-01 1.48e-01h  1
 148 -1.2771127e-01 1.47e+00 6.33e+01  -6.0 1.58e+04  -7.7 4.59e-03 7.51e-04h  1
 149 -1.2822971e-01 3.97e-01 5.61e+01  -6.0 1.02e+02  -8.2 1.00e+00 8.09e-01h  1
iter    objective    inf_pr   inf_du lg(mu)  ||d||  lg(rg) alpha_du alpha_pr  ls
 150 -1.2835137e-01 3.03e-01 4.38e+01  -6.0 1.05e+02  -7.8 2.99e-01 3.76e-01h  1
 151 -1.2845512e-01 3.24e-01 2.76e+01  -6.0 5.93e+01  -7.4 5.22e-01 5.25e-01h  1
 152 -1.2856266e-01 2.88e-01 4.13e+01  -6.0 2.70e+01  -6.9 7.78e-01 5.41e-01h  1
 153 -1.2886277e-01 8.13e-01 8.78e+01  -6.0 1.97e+02  -7.4 9.91e-02 4.09e-01h  1
 154 -1.2895427e-01 8.29e-01 1.34e+02  -6.0 6.57e+01  -7.9 2.00e-01 4.05e-01h  1
 155 -1.2922035e-01 4.85e-01 2.63e+02  -6.0 1.72e+02  -8.4 8.80e-02 3.71e-01h  1
 156 -1.2973316e-01 1.25e+00 5.81e+02  -6.0 3.70e+02  -8.9 1.19e-01 4.41e-01h  1
 157 -1.3025213e-01 1.18e+00 1.03e+03  -6.0 1.62e+01  -6.6 5.25e-01 1.00e+00h  1
 158 -1.3040345e-01 1.22e+00 7.71e+02  -6.0 9.95e+01  -7.1 7.03e-02 6.30e-02h  1
 159 -1.3061420e-01 1.78e+00 4.10e+03  -6.0 1.44e+03  -7.6 3.11e-02 9.50e-03h  1
iter    objective    inf_pr   inf_du lg(mu)  ||d||  lg(rg) alpha_du alpha_pr  ls
 160 -1.3093367e-01 3.47e+00 4.06e+03  -6.0 7.13e+01  -8.1 3.62e-01 2.20e-01f  1
 161 -1.3137638e-01 2.94e+00 2.83e+03  -6.0 1.94e+02  -8.5 4.87e-01 3.68e-01h  1
 162 -1.3138541e-01 2.92e+00 3.75e+03  -6.0 5.35e+02  -9.0 2.15e-04 5.45e-03h  1
 163 -1.3186931e-01 2.52e+00 7.03e+05  -6.0 1.49e+03  -9.5 4.19e-03 2.15e-01f  1
 164 -1.3327852e-01 4.29e+00 4.16e+05  -6.0 2.65e+03 -10.0 1.60e-01 4.09e-01h  1
 165 -1.3429661e-01 8.79e+00 3.17e+05  -6.0 3.56e+03 -10.4 8.06e-02 2.38e-01h  1
 166 -1.3433510e-01 8.02e+00 2.89e+05  -6.0 4.01e+02  -9.1 3.17e-01 8.69e-02h  1
 167 -1.3483733e-01 5.37e+00 1.61e+05  -6.0 9.87e+02  -9.6 5.98e-01 4.42e-01h  1
 168 -1.3544093e-01 6.58e+00 1.12e+05  -6.0 1.63e+03 -10.1 1.29e-01 3.04e-01h  1
 169 -1.3588597e-01 4.20e+00 4.09e+04  -6.0 7.03e+02  -9.6 3.48e-01 6.37e-01h  1
iter    objective    inf_pr   inf_du lg(mu)  ||d||  lg(rg) alpha_du alpha_pr  ls
 170 -1.3632618e-01 1.44e+01 3.39e+04  -6.0 4.67e+03 -10.1 1.52e-01 1.71e-01h  1
 171 -1.3725139e-01 8.64e+00 8.40e+03  -6.0 5.99e+02  -9.7 2.59e-01 7.54e-01h  1
 172 -1.3667649e-01 7.34e+00 1.30e+03  -6.0 2.79e+01  -8.4 5.44e-01 8.53e-01h  1
 173 -1.3697642e-01 1.82e+01 1.21e+03  -6.0 1.53e+03  -8.8 1.43e-01 6.11e-02h  1
 174 -1.3704214e-01 2.66e+00 3.06e+02  -6.0 7.72e+02  -9.3 3.47e-01 7.54e-01h  1
 175 -1.3726241e-01 3.86e-01 4.93e+01  -6.0 4.73e+02  -9.8 9.11e-01 9.12e-01H  1
 176 -1.3745675e-01 7.33e+00 2.21e+01  -6.0 1.13e+03 -10.3 6.25e-01 6.78e-01h  1
 177 -1.3766294e-01 2.53e+00 4.59e+01  -6.0 4.36e+02  -9.8 1.74e-01 1.00e+00h  1
 178 -1.3781085e-01 1.42e+01 5.20e+01  -6.0 1.37e+03 -10.3 8.18e-01 7.46e-01h  1
 179 -1.3778161e-01 7.98e+01 9.24e+01  -6.0 5.84e+03 -10.8 3.90e-02 3.93e-01h  1
iter    objective    inf_pr   inf_du lg(mu)  ||d||  lg(rg) alpha_du alpha_pr  ls
 180 -1.3778125e-01 7.92e+01 5.33e+03  -6.0 3.25e+03    -  3.39e-01 7.60e-03h  1
 181 -1.3781216e-01 3.69e+01 1.73e+05  -6.0 2.28e+03    -  1.67e-02 5.39e-01h  1
 182 -1.3768847e-01 3.04e+00 1.18e+02  -6.0 8.64e+02    -  2.79e-03 1.00e+00h  1
 183 -1.3772955e-01 1.27e+00 3.90e+01  -6.0 2.83e+02    -  6.10e-01 8.20e-01h  1
 184 -1.3773865e-01 1.51e+01 2.96e+01  -6.0 2.77e+03    -  2.06e-01 3.32e-01h  2
 185 -1.3772193e-01 4.02e+00 3.11e+01  -6.0 2.50e+02    -  4.71e-01 7.73e-01h  1
 186 -1.3773278e-01 3.06e+01 4.88e+01  -6.0 1.32e+03    -  3.70e-01 1.00e+00h  1
 187 -1.3769941e-01 1.61e+01 6.55e+01  -6.0 5.77e+02  -9.5 1.85e-01 5.23e-01h  1
 188 -1.3768271e-01 1.23e+01 4.88e+01  -6.0 4.90e+02    -  2.77e-01 2.50e-01h  1
 189 -1.3769041e-01 4.44e+01 1.55e+02  -6.0 7.29e+03    -  1.03e-01 1.00e+00H  1
iter    objective    inf_pr   inf_du lg(mu)  ||d||  lg(rg) alpha_du alpha_pr  ls
 190 -1.3775307e-01 6.62e+00 1.89e+02  -6.0 1.08e+02  -9.0 9.77e-01 8.57e-01h  1
 191 -1.3780722e-01 1.64e+02 2.30e+02  -6.0 4.09e+03    -  6.66e-03 7.51e-01h  1
 192 -1.3782804e-01 1.48e+02 1.76e+02  -6.0 1.66e+03  -7.7 1.85e-01 1.02e-01h  2
 193 -1.3781987e-01 6.97e+01 2.06e+02  -6.0 7.52e+02  -7.3 1.41e-01 5.38e-01h  1
 194 -1.3782740e-01 6.66e+01 2.39e+02  -6.0 5.04e+01  -7.8 3.59e-01 4.38e-02h  4
 195 -1.3781915e-01 6.65e+01 2.62e+02  -6.0 1.91e+04    -  4.48e-03 2.10e-03h  3
 196 -1.3781149e-01 6.61e+01 3.34e+02  -6.0 3.92e+03    -  4.20e-02 6.56e-03h  4
 197 -1.3780835e-01 6.60e+01 4.04e+02  -6.0 1.35e+04    -  8.25e-03 5.61e-04h  6
 198 -1.3780967e-01 5.25e+01 7.84e+01  -6.0 2.35e+01  -8.2 8.48e-01 2.04e-01h  3
 199 -1.3774676e-01 6.35e-01 2.58e+01  -6.0 2.27e+02    -  9.96e-01 1.00e+00h  1
iter    objective    inf_pr   inf_du lg(mu)  ||d||  lg(rg) alpha_du alpha_pr  ls
 200 -1.3771180e-01 1.97e+01 1.85e+01  -6.0 1.17e+03    -  2.12e-01 1.00e+00h  1
 201 -1.3768527e-01 5.17e-02 2.13e+01  -6.0 4.18e+01    -  1.36e-01 1.00e+00h  1
 202 -1.3769061e-01 2.91e+01 4.98e+01  -6.0 1.51e+03    -  4.69e-01 1.00e+00H  1
 203 -1.3766991e-01 1.69e+00 5.79e+00  -6.0 3.58e+02    -  1.00e+00 1.00e+00h  1
 204 -1.3765601e-01 2.49e+00 4.56e+01  -6.0 3.95e+02    -  1.00e+00 1.00e+00h  1
 205 -1.3766892e-01 4.20e-02 8.50e+00  -6.0 1.05e+01  -8.7 1.00e+00 1.00e+00h  1
 206 -1.3767154e-01 1.77e-02 3.27e-01  -6.0 3.31e+01  -9.2 1.00e+00 1.00e+00h  1
 207 -1.3767633e-01 2.23e-01 7.77e+00  -6.0 1.17e+02  -9.7 1.00e+00 1.00e+00h  1
 208 -1.3778168e-01 8.68e+00 6.86e+01  -6.0 7.65e+02 -10.1 8.44e-01 1.00e+00H  1
 209 -1.3782185e-01 8.09e-01 1.84e+02  -6.0 9.43e+04 -10.6 8.51e-03 7.32e-03h  2
iter    objective    inf_pr   inf_du lg(mu)  ||d||  lg(rg) alpha_du alpha_pr  ls
 210 -1.3823439e-01 3.23e+01 2.12e+02  -6.0 5.52e+03 -10.2 1.63e-01 1.00e+00H  1
 211 -1.3789685e-01 5.51e+00 1.15e+02  -6.0 1.76e+03    -  5.12e-01 4.72e-01h  1
 212 -1.3799228e-01 1.72e-01 1.97e+01  -6.0 3.84e+01  -9.8 3.30e-01 1.00e+00h  1
 213 -1.3796939e-01 1.59e-01 2.20e+01  -6.0 6.45e+01  -9.3 1.00e+00 1.00e+00h  1
 214 -1.3797041e-01 2.52e-01 2.20e+01  -6.0 4.67e+02  -9.8 1.00e+00 8.24e-02h  2
 215 -1.3800975e-01 1.62e+00 1.22e+01  -6.0 3.24e+02    -  1.00e+00 1.00e+00h  1
 216 -1.3801199e-01 1.25e+00 3.46e-01  -6.0 2.61e+02    -  1.00e+00 1.00e+00h  1
 217 -1.3801208e-01 4.01e-02 9.08e-01  -6.0 4.59e+01    -  7.06e-01 1.00e+00h  1
 218 -1.3801198e-01 1.96e-02 7.15e-03  -6.0 3.29e+01    -  1.00e+00 1.00e+00h  1
 219 -1.3801197e-01 2.53e-04 6.95e-05  -6.0 3.72e+00    -  1.00e+00 1.00e+00h  1
iter    objective    inf_pr   inf_du lg(mu)  ||d||  lg(rg) alpha_du alpha_pr  ls
 220 -1.3801197e-01 1.28e-08 5.65e-09  -6.0 2.69e-02    -  1.00e+00 1.00e+00h  1
 221 -1.3855111e-01 6.51e+00 1.17e+01  -7.5 3.73e+03    -  1.71e-01 1.73e-01f  1
 222 -1.3874204e-01 7.36e+00 2.56e+01  -7.5 4.02e+03    -  3.42e-02 7.08e-02h  1
 223 -1.3912764e-01 1.01e+01 2.12e+01  -7.5 2.55e+03    -  3.45e-01 2.32e-01h  1
 224 -1.3929655e-01 1.07e+01 1.86e+01  -7.5 2.43e+03    -  1.61e-01 1.81e-01h  1
 225 -1.3930253e-01 1.06e+01 7.51e+01  -7.5 2.98e+02  -9.4 5.09e-01 1.00e-02h  1
 226 -1.3980605e-01 3.20e+01 4.21e+01  -7.5 2.57e+03    -  7.67e-03 6.13e-01h  1
 227 -1.3984024e-01 2.61e+01 3.30e+01  -7.5 1.18e+03    -  2.11e-01 1.84e-01h  1
 228 -1.3992421e-01 1.30e+01 2.65e+01  -7.5 1.14e+03    -  2.74e-01 5.09e-01h  1
 229 -1.3992659e-01 1.28e+01 2.61e+01  -7.5 2.06e+02  -8.1 1.82e-02 1.52e-02h  1
iter    objective    inf_pr   inf_du lg(mu)  ||d||  lg(rg) alpha_du alpha_pr  ls
 230 -1.4002254e-01 4.72e+00 2.80e+01  -7.5 8.19e+02    -  2.94e-01 6.60e-01h  1
 231 -1.4005470e-01 3.61e+00 1.25e+01  -7.5 1.03e+03    -  4.43e-01 2.35e-01h  1
 232 -1.4011279e-01 1.87e+00 4.12e+01  -7.5 2.57e+02    -  2.73e-01 5.89e-01h  1
 233 -1.4018772e-01 6.28e-01 1.93e+01  -7.5 1.13e+01  -8.5 7.49e-01 7.80e-01h  1
 234 -1.4028440e-01 4.40e+00 4.90e+02  -7.5 4.68e+02    -  2.29e-01 9.13e-01h  1
 235 -1.4030958e-01 3.40e+00 8.68e+02  -7.5 3.53e+02    -  7.53e-01 2.28e-01h  1
 236 -1.4032005e-01 3.09e+00 1.47e+03  -7.5 5.34e+02    -  5.07e-01 9.19e-02h  1
 237 -1.4036938e-01 2.04e+00 7.17e+02  -7.5 9.07e+02    -  3.35e-01 4.27e-01h  1
 238 -1.4039211e-01 1.77e+00 2.11e+02  -7.5 9.31e+02    -  8.87e-02 1.81e-01h  1
 239 -1.4042045e-01 1.79e+00 2.25e+02  -7.5 8.38e+02    -  2.27e-01 2.16e-01h  1
iter    objective    inf_pr   inf_du lg(mu)  ||d||  lg(rg) alpha_du alpha_pr  ls
 240 -1.4045586e-01 9.44e+00 9.81e+02  -7.5 3.51e+03    -  5.72e-02 2.30e-01h  1
 241 -1.4045663e-01 9.51e+00 6.17e+03  -7.5 2.79e+04    -  4.95e-02 4.48e-03h  1
 242 -1.4049111e-01 3.87e+01 5.59e+03  -7.5 1.74e+03    -  3.81e-01 1.00e+00h  1
 243 -1.4050462e-01 3.81e+01 5.19e+03  -7.5 3.66e+03    -  4.50e-01 1.93e-01h  1
 244 -1.4053065e-01 3.60e+01 3.67e+03  -7.5 2.78e+03    -  1.10e-02 2.78e-01h  1
 245 -1.4055642e-01 3.42e+01 1.89e+03  -7.5 2.58e+03    -  9.03e-02 3.09e-01h  1
 246 -1.4055109e-01 2.65e+01 1.01e+03  -7.5 2.56e+02    -  3.40e-02 2.28e-01h  1
 247 -1.4053044e-01 3.28e-02 1.39e+03  -7.5 1.15e+01  -9.0 3.39e-01 1.00e+00h  1
 248 -1.4057531e-01 5.63e+01 9.72e+02  -7.5 2.73e+03    -  1.84e-01 7.66e-01H  1
 249 -1.4056589e-01 5.50e+01 4.59e+02  -7.5 4.46e+03    -  5.01e-01 1.43e-01h  1
iter    objective    inf_pr   inf_du lg(mu)  ||d||  lg(rg) alpha_du alpha_pr  ls
 250 -1.4056082e-01 4.69e+01 4.61e+02  -7.5 1.80e+03    -  3.53e-03 1.74e-01h  2
 251 -1.4057495e-01 1.93e+01 9.86e+01  -7.5 1.05e+03    -  7.83e-01 1.00e+00h  1
 252 -1.4057445e-01 9.94e-03 4.14e+01  -7.5 1.76e+01  -9.5 6.05e-01 1.00e+00h  1
 253 -1.4057934e-01 2.45e+00 4.40e+00  -7.5 3.44e+02    -  1.00e+00 1.00e+00h  1
 254 -1.4058731e-01 5.73e+00 1.70e+01  -7.5 5.77e+02    -  1.19e-01 1.00e+00h  1
 255 -1.4058781e-01 1.29e-01 2.36e-01  -7.5 4.60e+01    -  2.19e-01 1.00e+00h  1
 256 -1.4058832e-01 5.49e-02 5.46e-02  -7.5 3.86e+01 -10.0 1.00e+00 1.00e+00h  1
 257 -1.4061219e-01 5.53e+01 1.81e+02  -7.5 2.97e+03    -  1.04e-01 5.98e-01h  1
 258 -1.4061084e-01 5.28e+01 3.93e+02  -7.5 2.15e+03    -  7.33e-01 4.81e-02h  1
 259 -1.4059990e-01 1.12e+01 5.60e+03  -7.5 8.14e+02    -  6.42e-02 1.00e+00h  1
iter    objective    inf_pr   inf_du lg(mu)  ||d||  lg(rg) alpha_du alpha_pr  ls
 260 -1.4059968e-01 1.07e-02 5.99e+00  -7.5 1.34e+01    -  9.44e-01 1.00e+00h  1
 261 -1.4061774e-01 3.50e+01 1.35e+02  -7.5 2.71e+03    -  6.32e-02 5.10e-01h  1
 262 -1.4061215e-01 2.77e+01 1.01e+02  -7.5 1.39e+03    -  8.43e-04 3.07e-01h  1
 263 -1.4060593e-01 2.64e+01 9.67e+01  -7.5 2.33e+03    -  6.52e-01 2.06e-01h  1
 264 -1.4060467e-01 6.49e-01 1.02e+01  -7.5 9.65e+01    -  7.52e-01 1.00e+00h  1
 265 -1.4060782e-01 2.67e+00 1.21e+00  -7.5 2.45e+02    -  1.00e+00 1.00e+00h  1
 266 -1.4060563e-01 1.15e+00 1.97e+00  -7.5 1.68e+02    -  5.87e-01 1.00e+00h  1
 267 -1.4060565e-01 9.74e-04 3.08e-03  -7.5 1.80e+00    -  1.00e+00 1.00e+00h  1
 268 -1.4060677e-01 1.36e-01 5.92e-01  -7.5 8.48e+01 -10.5 1.00e+00 1.00e+00h  1
 269 -1.4061900e-01 1.68e+01 7.27e+01  -7.5 2.56e+03    -  8.60e-02 3.67e-01h  1
iter    objective    inf_pr   inf_du lg(mu)  ||d||  lg(rg) alpha_du alpha_pr  ls
 270 -1.4061367e-01 1.15e+01 4.63e+01  -7.5 8.06e+02    -  1.00e+00 5.00e-01h  2
 271 -1.4061986e-01 4.83e+00 2.10e+01  -7.5 4.83e+02    -  1.00e+00 9.64e-01h  1
 272 -1.4062012e-01 5.34e-03 4.11e-01  -7.5 1.52e+01    -  1.00e+00 1.00e+00h  1
 273 -1.4062000e-01 1.34e-03 1.09e-02  -7.5 8.17e+00    -  1.00e+00 1.00e+00h  1
 274 -1.4062001e-01 5.94e-06 4.14e-05  -7.5 5.43e-01    -  1.00e+00 1.00e+00h  1
 275 -1.4062001e-01 1.03e-08 6.84e-08  -7.5 2.26e-02    -  1.00e+00 1.00e+00h  1
 276 -1.4062327e-01 9.23e-02 2.40e+00  -9.0 2.59e+02    -  2.88e-01 3.04e-01h  1
 277 -1.4063018e-01 2.10e+01 7.95e+01  -9.0 1.17e+05    -  2.17e-02 8.78e-03h  1
 278 -1.4063789e-01 2.77e+01 1.19e+02  -9.0 3.62e+03    -  1.86e-01 2.32e-01h  1
 279 -1.4064254e-01 2.74e+01 1.26e+02  -9.0 4.34e+03    -  2.91e-01 1.62e-01h  1
iter    objective    inf_pr   inf_du lg(mu)  ||d||  lg(rg) alpha_du alpha_pr  ls
 280 -1.4064966e-01 4.42e+01 1.33e+02  -9.0 3.43e+03    -  3.20e-01 3.66e-01h  1
 281 -1.4065356e-01 4.07e+01 2.54e+01  -9.0 1.55e+03    -  1.00e-02 8.19e-01h  1
 282 -1.4065068e-01 1.55e-01 7.70e+00  -9.0 1.02e+02    -  4.01e-02 1.00e+00h  1
 283 -1.4065131e-01 8.47e-02 7.37e-01  -9.0 6.42e+01    -  1.00e+00 1.00e+00h  1
 284 -1.4065129e-01 2.12e-02 8.98e-02  -9.0 3.22e+01    -  1.00e+00 1.00e+00h  1
 285 -1.4065129e-01 6.76e-08 1.75e-05  -9.0 3.78e-02    -  1.00e+00 1.00e+00h  1
 286 -1.4065129e-01 3.05e-10 2.60e-12  -9.0 2.80e-05    -  1.00e+00 1.00e+00h  1

Number of Iterations....: 286

                                   (scaled)                 (unscaled)
Objective...............:  -1.4065129089317002e-01   -1.4065129089317002e-01
Dual infeasibility......:   2.6017105136943997e-12    2.6017105136943997e-12
Constraint violation....:   3.0548375493707342e-10    3.0548375493707342e-10
Complementarity.........:   9.0909098743742029e-10    9.0909098743742029e-10
Overall NLP error.......:   9.0909098743742029e-10    9.0909098743742029e-10


Number of objective function evaluations             = 463
Number of objective gradient evaluations             = 287
Number of equality constraint evaluations            = 463
Number of inequality constraint evaluations          = 464
Number of equality constraint Jacobian evaluations   = 289
Number of inequality constraint Jacobian evaluations = 289
Number of Lagrangian Hessian evaluations             = 286
Total CPU secs in IPOPT (w/o function evaluations)   =    135.855
Total CPU secs in NLP function evaluations           =      5.693

EXIT: Optimal Solution Found.
